(set-info :source |
 Generated by Alive 0.1
 More info in N. P. Lopes, D. Menendez, S. Nagarakatte, J. Regehr.
 Provably Correct Peephole Optimizations with Alive. In PLDI'15.
|)

(set-info :status unknown)
(declare-fun %Op1 () (_ BitVec 48))
(declare-fun %Op0 () (_ BitVec 48))
(declare-fun |ana_MaskedValueIsZero(%Op0, (1 << (width(%r) - 1)))| () (_ BitVec 1))
(assert
 (let (($x479083 (= |ana_MaskedValueIsZero(%Op0, (1 << (width(%r) - 1)))| (_ bv1 1))))
 (let (($x496208 (=> $x479083 (= (bvand %Op0 (bvshl (_ bv1 48) (bvsub (_ bv48 48) (_ bv1 48)))) (_ bv0 48)))))
 (let (($x497349 (bvult %Op1 (_ bv48 48))))
 (and $x497349 $x496208 $x479083 (and (distinct (bvashr %Op0 %Op1) (bvlshr %Op0 %Op1)) true))))))
(check-sat)
